
List of user-set options:

                                    Name   Value                used
                           compl_inf_tol = 1                     yes
                         constr_viol_tol = 1                     yes
                            dual_inf_tol = 1000                  yes
                           linear_solver = ma97                  yes
                              ma86_small = 1e-30                  no
                                  ma86_u = 0.0001                 no
                              ma97_order = best                  yes
                              ma97_small = 1e-30                 yes
                            ma97_switch1 = at_start              yes
                            ma97_switch2 = od_hd_reuse           yes
                                  ma97_u = 1e-06                 yes
                               ma97_umax = 0.5                   yes
                                max_iter = 1000                  yes
                    max_refinement_steps = 20                    yes
                    min_refinement_steps = 5                     yes
                                 mu_init = 1e-06                 yes
           mu_superlinear_decrease_power = 1.25                  yes
                   nlp_scaling_min_value = 1e-08                 yes
                        option_file_name = Preset_Case:_801_NCP.opt  yes
                             output_file = ./tmp/Preset_Case:_801_NCP.output  yes
                      print_user_options = yes                   yes
        required_infeasibility_reduction = 1                      no
                                     tol = 1e-08                 yes
                   warm_start_bound_frac = 1e-20                 yes
                   warm_start_bound_push = 1e-20                 yes
                   warm_start_init_point = yes                   yes
              warm_start_mult_bound_push = 1e-20                 yes
                warm_start_mult_init_max = 1e+40                 yes
             warm_start_slack_bound_frac = 1e-20                 yes
             warm_start_slack_bound_push = 1e-20                 yes

******************************************************************************
This program contains Ipopt, a library for large-scale nonlinear optimization.
 Ipopt is released as open source code under the Eclipse Public License (EPL).
         For more information visit http://projects.coin-or.org/Ipopt
******************************************************************************

This is Ipopt version 3.12.10, running with linear solver ma97.

Number of nonzeros in equality constraint Jacobian...:   117167
Number of nonzeros in inequality constraint Jacobian.:      213
Number of nonzeros in Lagrangian Hessian.............:    47513

Total number of variables............................:    29977
                     variables with only lower bounds:    11312
                variables with lower and upper bounds:    15135
                     variables with only upper bounds:        0
Total number of equality constraints.................:    29864
Total number of inequality constraints...............:       25
        inequality constraints with only lower bounds:        4
   inequality constraints with lower and upper bounds:        0
        inequality constraints with only upper bounds:       21

iter    objective    inf_pr   inf_du lg(mu)  ||d||  lg(rg) alpha_du alpha_pr  ls
   0 -1.6031659e-01 4.09e-01 2.00e+00  -6.0 0.00e+00    -  0.00e+00 0.00e+00   0
In iteration 0, 9 Slacks too small, adjusting variable bounds
   1 -1.6031659e-01 4.09e-01 2.39e+02  -6.0 1.10e+10    -  2.38e-14 3.89e-19h  1
   2 -1.6031467e-01 4.09e-01 2.39e+02  -6.0 1.53e+02    -  8.98e-06 3.17e-05f  1
   3 -1.6031455e-01 4.09e-01 2.42e+02  -6.0 1.11e+02    -  1.97e-02 1.87e-06h  2
   4 -1.6022595e-01 4.09e-01 2.42e+02  -6.0 1.15e+02    -  1.36e-07 1.32e-03h  1
   5 -1.5791405e-01 3.95e-01 2.31e+02  -6.0 1.11e+02    -  8.12e-03 3.31e-02h  1
   6 -1.5748726e-01 3.93e-01 2.37e+02  -6.0 7.30e+01    -  5.66e-02 6.37e-03h  1
   7 -1.5496057e-01 3.78e-01 2.49e+02  -6.0 9.46e+01    -  9.12e-03 3.75e-02h  2
   8 -1.5330307e-01 3.68e-01 2.78e+02  -6.0 8.69e+01    -  2.93e-02 2.59e-02h  2
   9 -1.5105110e-01 3.55e-01 3.18e+02  -6.0 8.45e+01    -  3.39e-02 3.58e-02h  1
iter    objective    inf_pr   inf_du lg(mu)  ||d||  lg(rg) alpha_du alpha_pr  ls
  10 -1.4898398e-01 3.43e-01 2.13e+04  -6.0 8.94e+01    -  2.46e-02 3.35e-02h  3
  11 -1.4753595e-01 3.35e-01 2.01e+04  -6.0 8.54e+01    -  2.44e-02 2.42e-02h  1
  12 -1.4568652e-01 3.24e-01 7.04e+04  -6.0 8.63e+01    -  1.03e-02 3.16e-02h  3
  13 -1.4345247e-01 3.11e-01 9.78e+04  -6.0 8.31e+01    -  2.80e-02 4.04e-02h  2
  14 -1.4108586e-01 2.97e-01 8.82e+04  -6.0 7.10e+01    -  4.81e-02 4.59e-02h  4
  15 -1.3965519e-01 2.88e-01 4.60e+04  -6.0 7.12e+01    -  4.69e-02 2.90e-02h  5
  16 -1.3822351e-01 2.80e-01 3.40e+05  -6.0 6.97e+01    -  2.16e-01 2.99e-02h  5
  17 -1.3671367e-01 2.71e-01 5.46e+05  -6.0 6.87e+01    -  2.17e-01 3.21e-02h  4
  18 -1.3372604e-01 2.53e-01 5.38e+05  -6.0 7.87e+01    -  1.10e-01 6.46e-02h  2
  19 -1.3130096e-01 2.39e-01 5.07e+05  -6.0 8.77e+01    -  4.97e-02 5.56e-02h  1
iter    objective    inf_pr   inf_du lg(mu)  ||d||  lg(rg) alpha_du alpha_pr  ls
  20 -1.2886439e-01 2.25e-01 4.76e+05  -6.0 1.01e+02    -  1.48e-01 5.77e-02h  1
  21 -1.2848246e-01 2.23e-01 4.63e+05  -6.0 1.16e+02    -  2.96e-02 9.63e-03h  1
  22 -1.2690235e-01 2.13e-01 4.50e+05  -6.0 6.90e+01    -  2.17e-01 4.65e-02h  1
  23 -1.2425427e-01 1.94e-01 4.14e+05  -6.0 6.68e+01    -  5.85e-02 8.63e-02h  1
  24 -1.2195863e-01 1.77e-01 3.59e+05  -6.0 5.85e+01    -  2.32e-01 8.69e-02h  1
  25 -1.2022163e-01 1.72e-01 3.07e+05  -6.0 5.28e+01    -  2.15e-01 7.80e-02h  3
  26 -1.1844506e-01 1.77e-01 2.40e+05  -6.0 5.82e+01    -  3.11e-01 9.36e-02h  3
  27 -1.1713884e-01 1.80e-01 1.46e+05  -6.0 7.79e+01    -  4.46e-01 9.67e-02h  3
  28 -1.1733712e-01 1.76e-01 1.12e+05  -6.0 2.04e+02    -  1.25e-01 3.73e-02h  4
  29 -1.1834436e-01 1.68e-01 4.00e+04  -6.0 2.49e+02    -  2.31e-01 5.74e-02h  3
iter    objective    inf_pr   inf_du lg(mu)  ||d||  lg(rg) alpha_du alpha_pr  ls
  30 -1.1857423e-01 1.60e-01 9.90e+03  -6.0 1.59e+02    -  3.05e-01 7.32e-02h  3
  31 -1.1864497e-01 1.60e-01 7.04e+03  -6.0 2.27e+02    -  1.21e-01 3.51e-03H  1
  32 -1.1880088e-01 1.47e-01 2.34e+03  -6.0 1.42e+02    -  1.00e-02 8.97e-02h  2
  33 -1.1934319e-01 1.38e-01 7.32e+03  -6.0 9.89e+01    -  5.12e-01 1.18e-01h  1
  34 -1.1667730e-01 1.40e-01 1.16e+05  -6.0 1.93e+01  -4.0 3.53e-04 2.50e-01H  1
  35 -1.1674733e-01 1.40e-01 1.13e+05  -6.0 7.39e+01    -  2.45e-02 1.99e-02h  1
  36 -1.1657368e-01 1.35e-01 9.88e+04  -6.0 1.93e+01  -4.5 7.83e-02 3.33e-02h  1
  37 -1.1755773e-01 1.21e-01 6.44e+04  -6.0 2.98e+01  -5.0 2.37e-01 1.83e-01h  1
  38 -1.2335762e-01 3.24e-01 9.16e+04  -6.0 1.24e+02    -  1.34e-01 3.26e-01f  1
  39 -1.2380801e-01 4.05e-01 9.01e+04  -6.0 3.63e+02  -5.4 1.57e-02 1.77e-02f  1
iter    objective    inf_pr   inf_du lg(mu)  ||d||  lg(rg) alpha_du alpha_pr  ls
  40 -1.2634508e-01 3.08e-01 7.50e+04  -6.0 3.02e+01  -5.0 1.48e-01 1.43e-01h  1
  41 -1.2598461e-01 3.57e-01 2.51e+05  -6.0 4.50e+01    -  1.46e-04 4.48e-01h  1
  42 -1.2563344e-01 2.28e-01 9.60e+05  -6.0 1.73e+01    -  3.06e-03 5.98e-01h  1
  43 -1.2563184e-01 2.28e-01 3.28e+05  -6.0 6.08e+01    -  9.85e-02 1.94e-03h  1
  44 -1.2631493e-01 3.26e-01 3.57e+07  -6.0 6.81e+02    -  7.29e-04 1.67e-02h  1
  45 -1.2622261e-01 9.58e-02 5.31e+05  -6.0 1.50e+01    -  7.27e-02 1.00e+00h  1
  46 -1.2637914e-01 9.55e-02 5.31e+05  -6.0 3.14e+02  -2.8 2.95e-04 5.31e-04h  1
  47 -1.2642370e-01 9.37e-02 5.20e+05  -6.0 1.39e+01    -  8.74e-04 1.98e-02h  1
  48 -1.2635767e-01 9.16e-02 5.09e+05  -6.0 2.67e+02    -  1.47e-02 2.07e-02h  6
  49 -1.2783759e-01 4.80e-02 1.58e+05  -6.0 1.29e+01    -  7.53e-02 6.71e-01h  1
iter    objective    inf_pr   inf_du lg(mu)  ||d||  lg(rg) alpha_du alpha_pr  ls
  50 -1.3022902e-01 3.84e-02 8.70e+03  -6.0 1.23e+01    -  1.78e-01 1.00e+00h  1
  51 -1.3335572e-01 2.65e-01 6.82e+03  -6.0 1.56e+01    -  1.91e-01 7.95e-01h  1
  52 -1.3853059e-01 9.66e-01 1.84e+03  -6.0 1.92e+01    -  7.27e-01 1.00e+00f  1
  53 -1.4343351e-01 1.56e+00 1.77e+03  -6.0 7.70e+01    -  4.03e-02 3.18e-01h  1
  54 -1.4562979e-01 1.41e+00 1.08e+03  -6.0 6.43e+01    -  3.85e-01 1.73e-01h  1
  55 -1.4967172e-01 1.52e+00 9.07e+02  -6.0 1.19e+02    -  1.62e-01 2.26e-01h  1
  56 -1.5708762e-01 6.38e-01 4.76e+02  -6.0 1.34e+02    -  4.72e-01 4.50e-01h  1
  57 -1.5943122e-01 1.08e+00 2.54e+02  -6.0 2.72e+02    -  4.35e-01 1.21e-01h  1
  58 -1.6435310e-01 4.75e+00 1.30e+02  -6.0 5.99e+02    -  4.78e-01 2.00e-01h  1
  59 -1.6428621e-01 4.00e+00 1.17e+02  -6.0 8.48e-01  -3.3 1.42e-02 1.58e-01h  1
iter    objective    inf_pr   inf_du lg(mu)  ||d||  lg(rg) alpha_du alpha_pr  ls
  60 -1.6451387e-01 3.97e+00 6.15e+01  -6.0 1.95e+03    -  2.65e-01 8.71e-03h  1
  61 -1.6582589e-01 2.95e+00 4.61e+01  -6.0 1.14e+04    -  5.37e-02 1.88e-02h  1
  62 -1.7018666e-01 5.70e+00 1.05e+02  -6.0 1.32e+03    -  5.33e-01 1.59e-01h  1
  63 -1.7722033e-01 8.00e+00 1.03e+02  -6.0 2.66e+03    -  8.47e-02 1.78e-01h  1
  64 -1.7829674e-01 8.12e+00 6.19e+02  -6.0 1.24e+03    -  1.67e-01 4.16e-02h  1
  65 -1.7883709e-01 8.02e+00 2.28e+03  -6.0 1.23e+03    -  5.46e-01 2.22e-02h  1
  66 -1.7887211e-01 7.74e+00 2.44e+03  -6.0 3.47e+00  -3.7 1.39e-02 3.50e-02h  1
  67 -1.7894806e-01 6.84e+00 2.04e+03  -6.0 3.94e+00  -4.2 1.75e-01 1.21e-01h  1
  68 -1.7914157e-01 4.92e+00 8.21e+02  -6.0 2.93e+00  -4.7 4.60e-01 2.81e-01h  1
  69 -1.7949474e-01 4.06e+00 5.16e+02  -6.0 6.50e+00  -5.2 3.76e-01 1.74e-01h  1
iter    objective    inf_pr   inf_du lg(mu)  ||d||  lg(rg) alpha_du alpha_pr  ls
  70 -1.7990685e-01 3.62e+00 1.10e+03  -6.0 1.63e+01  -5.6 9.98e-01 1.14e-01h  1
  71 -1.8008407e-01 3.48e+00 2.98e+03  -6.0 3.69e+01  -6.1 1.00e+00 4.16e-02h  1
  72 -1.8381776e-01 1.65e+00 1.81e+03  -6.0 6.32e+01  -6.6 1.00e+00 6.24e-01h  1
  73 -1.8380547e-01 1.58e+00 1.46e+04  -6.0 3.35e+00  -2.6 1.16e-02 4.34e-02h  1
  74 -1.8373859e-01 1.38e+00 1.26e+04  -6.0 3.47e+00  -2.1 4.48e-03 1.28e-01h  1
  75 -1.8372976e-01 1.36e+00 1.24e+04  -6.0 6.34e+00  -1.7 1.69e-02 1.31e-02h  1
  76 -1.8372682e-01 1.35e+00 1.23e+04  -6.0 1.72e+00  -1.3 6.28e-02 8.37e-03h  1
  77 -1.8369305e-01 1.29e+00 1.18e+04  -6.0 1.09e+01  -1.8 2.19e-02 4.16e-02h  1
  78 -1.8366767e-01 1.21e+00 1.10e+04  -6.0 2.34e+00  -1.3 1.88e-01 6.58e-02h  1
  79 -1.8363512e-01 1.15e+00 1.05e+04  -6.0 1.21e+01  -1.8 4.52e-02 4.77e-02h  1
iter    objective    inf_pr   inf_du lg(mu)  ||d||  lg(rg) alpha_du alpha_pr  ls
  80 -1.8359845e-01 1.12e+00 1.03e+04  -6.0 1.26e+01  -2.3 1.58e-02 2.22e-02h  1
  81 -1.8357798e-01 1.06e+00 9.69e+03  -6.0 1.50e+00  -1.9 3.92e-01 5.87e-02h  1
  82 -1.8340563e-01 6.87e-01 6.29e+03  -6.0 2.25e+00  -2.3 4.01e-01 3.51e-01h  1
  83 -1.8319188e-01 3.17e-02 9.62e+01  -6.0 1.34e+00  -2.8 1.00e+00 1.00e+00h  1
  84 -1.8324205e-01 3.05e-05 4.10e+00  -6.0 1.31e-01  -3.3 5.07e-01 1.00e+00h  1
  85 -1.8325605e-01 3.00e-05 4.89e+00  -6.0 5.21e-01  -3.8 9.16e-01 8.39e-02h  1
  86 -1.8335879e-01 1.23e-03 1.81e+01  -6.0 3.42e+00  -4.2 1.00e+00 2.00e-01f  1
  87 -1.8360281e-01 2.33e-03 2.28e+01  -6.0 1.76e+00  -4.7 1.00e+00 5.80e-01f  1
  88 -1.8371450e-01 2.34e-03 2.83e+01  -6.0 3.52e+00  -5.2 8.34e-01 2.19e-01f  1
  89 -1.8396370e-01 5.67e-03 2.93e+01  -6.0 8.73e+00  -5.7 1.00e+00 2.99e-01f  1
iter    objective    inf_pr   inf_du lg(mu)  ||d||  lg(rg) alpha_du alpha_pr  ls
  90 -1.8435168e-01 2.23e-02 1.20e+01  -6.0 1.82e+01  -6.1 7.25e-01 3.63e-01f  1
  91 -1.8523757e-01 4.85e-02 4.85e+00  -6.0 2.13e+01  -6.6 1.00e+00 1.00e+00f  1
  92 -1.8573081e-01 2.54e-01 2.52e-01  -6.0 5.15e+01  -7.1 1.00e+00 1.00e+00h  1
  93 -1.8675490e-01 2.76e-01 4.02e+00  -6.0 1.34e+02  -7.6 1.00e+00 6.40e-01h  1
  94 -1.9038136e-01 1.18e+00 2.53e+00  -6.0 3.13e+02  -8.1 1.00e+00 8.60e-01h  1
  95 -1.9389152e-01 1.56e+00 3.61e+00  -6.0 6.30e+02  -8.5 3.28e-01 3.70e-01h  1
  96 -1.9652757e-01 5.32e+00 2.49e+02  -6.0 1.91e+04  -9.0 5.02e-02 2.68e-02h  1
  97 -2.0370515e-01 4.91e+00 4.83e+02  -6.0 1.62e+03  -8.6 2.64e-01 4.40e-01h  1
  98 -2.0557762e-01 4.33e+00 4.26e+02  -6.0 7.20e+02  -8.2 9.83e-01 1.85e-01h  1
  99 -2.0762839e-01 2.73e+00 1.94e+02  -6.0 2.26e+02  -7.7 1.00e+00 4.70e-01h  1
iter    objective    inf_pr   inf_du lg(mu)  ||d||  lg(rg) alpha_du alpha_pr  ls
 100 -2.0787171e-01 2.66e+00 2.11e+02  -6.0 5.74e+02  -8.2 5.19e-01 3.00e-02h  1
 101 -2.0945421e-01 2.42e+00 1.93e+02  -6.0 1.95e+03  -8.7 5.91e-01 1.17e-01h  1
 102 -2.1307697e-01 1.15e+00 4.84e+01  -6.0 3.91e+02  -8.3 1.00e+00 7.52e-01h  1
 103 -2.1352547e-01 1.13e+00 5.47e+01  -6.0 1.36e+03  -8.7 2.12e-01 3.73e-02h  1
 104 -2.1543750e-01 7.81e-01 4.50e+01  -6.0 4.39e+02  -8.3 1.34e-01 6.10e-01h  1
 105 -2.1731294e-01 9.11e-01 6.01e+02  -6.0 2.21e+02  -7.9 7.99e-02 1.00e+00h  1
 106 -2.1863270e-01 4.36e-01 2.26e+02  -6.0 1.24e+02  -7.5 5.12e-01 1.00e+00h  1
 107 -2.1929594e-01 3.32e-01 4.07e+01  -6.0 6.11e+01  -7.0 4.00e-01 1.00e+00h  1
 108 -2.2054392e-01 1.94e+01 8.65e+01  -6.0 5.97e+01  -6.6 3.63e-01 1.00e+00h  1
 109 -2.2122700e-01 2.22e+01 7.04e+01  -6.0 7.59e+02  -7.1 1.19e-01 4.53e-02h  1
iter    objective    inf_pr   inf_du lg(mu)  ||d||  lg(rg) alpha_du alpha_pr  ls
 110 -2.2155437e-01 2.11e+01 7.82e+01  -6.0 1.60e+02  -7.6 4.74e-01 5.15e-02h  1
 111 -2.2270967e-01 1.57e+01 5.83e+01  -6.0 2.70e+02  -8.0 7.73e-01 2.55e-01h  1
 112 -2.2451974e-01 1.10e+01 4.71e+01  -6.0 6.55e+02  -8.5 5.72e-01 2.98e-01h  1
 113 -2.2679351e-01 8.65e+00 4.82e+01  -6.0 1.65e+03  -9.0 2.93e-01 2.14e-01h  1
 114 -2.2871141e-01 5.94e+00 1.04e+02  -6.0 6.18e+02  -8.6 8.72e-01 3.13e-01h  1
 115 -2.3140298e-01 4.16e+00 2.53e+02  -6.0 7.39e+02  -8.1 7.87e-02 6.33e-01h  1
 116 -2.3154730e-01 4.02e+00 2.23e+02  -6.0 1.87e+02  -7.7 1.86e-01 3.49e-02h  1
 117 -2.3211107e-01 2.90e+00 1.90e+02  -6.0 2.51e+02  -8.2 2.92e-02 2.80e-01h  1
 118 -2.3378904e-01 4.24e+00 1.34e+02  -6.0 4.78e+02  -8.7 2.50e-01 3.57e-01h  1
 119 -2.3412569e-01 4.33e+00 1.28e+02  -6.0 1.22e+03  -9.1 4.55e-02 3.81e-02h  1
iter    objective    inf_pr   inf_du lg(mu)  ||d||  lg(rg) alpha_du alpha_pr  ls
 120 -2.3484503e-01 4.01e+00 1.16e+02  -6.0 2.08e+03  -9.6 1.18e-01 7.35e-02h  1
 121 -2.3566196e-01 3.44e+00 9.96e+01  -6.0 7.13e+02  -9.2 1.42e-01 1.42e-01h  1
 122 -2.3692108e-01 2.95e+00 9.18e+01  -6.0 1.66e+03  -9.7 2.38e-02 1.42e-01h  1
 123 -2.3747990e-01 6.31e+00 8.34e+01  -6.0 6.16e+02  -8.3 6.37e-03 2.10e-01h  1
 124 -2.3786311e-01 6.37e+00 7.17e+01  -6.0 4.58e+02  -8.8 9.02e-02 2.21e-01h  1
 125 -2.3844001e-01 6.87e+00 5.11e+01  -6.0 8.39e+02  -9.3 3.88e-01 1.02e-01h  1
 126 -2.4064562e-01 7.87e+00 4.72e+01  -6.0 3.41e+03  -9.8 8.04e-03 2.09e-01h  1
 127 -2.4098090e-01 7.33e+00 4.07e+01  -6.0 9.53e+02  -9.4 3.32e-01 7.52e-02h  1
 128 -2.4240565e-01 2.69e+00 1.83e+01  -6.0 4.29e+02  -8.9 1.00e+00 6.84e-01h  1
 129 -2.4342112e-01 6.70e+00 1.05e+01  -6.0 1.89e+03  -9.4 2.28e-01 2.62e-01h  1
iter    objective    inf_pr   inf_du lg(mu)  ||d||  lg(rg) alpha_du alpha_pr  ls
 130 -2.4369098e-01 9.26e+00 2.34e+01  -6.0 5.46e+03  -9.9 4.01e-04 1.07e-01h  1
 131 -2.4370537e-01 9.25e+00 2.44e+01  -6.0 3.73e+04  -7.6 1.73e-04 1.71e-03h  1
 132 -2.4365606e-01 9.81e+00 2.52e+01  -6.0 1.01e+05  -8.1 2.16e-08 1.71e-03h  2
 133 -2.4377961e-01 6.40e+00 4.59e+01  -6.0 9.01e+01  -7.7 1.60e-01 3.47e-01h  1
 134 -2.4420346e-01 2.74e-01 3.17e+01  -6.0 8.45e+01  -8.2 2.22e-01 1.00e+00f  1
 135 -2.4430608e-01 2.63e-01 2.30e+02  -6.0 3.30e+02  -8.7 3.60e-01 8.65e-02h  1
 136 -2.4492408e-01 6.26e-01 2.85e+02  -6.0 5.78e+02  -9.1 4.22e-01 3.23e-01h  1
 137 -2.4499975e-01 2.92e-01 6.21e+02  -6.0 9.53e+01  -7.8 2.11e-01 5.35e-01h  1
Error in an AMPL evaluation. Run with "halt_on_ampl_error yes" to see details.
Warning: Cutting back alpha due to evaluation error
 138 -2.4503574e-01 2.63e-01 4.80e+02  -6.0 1.02e+02  -8.3 3.70e-03 9.89e-02h  2
 139 -2.4509389e-01 1.06e-01 9.56e+03  -6.0 4.78e+01  -6.9 3.86e-02 5.99e-01h  1
Error in an AMPL evaluation. Run with "halt_on_ampl_error yes" to see details.
Warning: Cutting back alpha due to evaluation error
iter    objective    inf_pr   inf_du lg(mu)  ||d||  lg(rg) alpha_du alpha_pr  ls
 140 -2.4508510e-01 9.82e-02 8.90e+03  -6.0 1.77e+02  -7.4 1.97e-01 6.91e-02f  2
 141 -2.4529901e-01 4.73e-02 2.35e+01  -6.0 3.94e+01  -7.9 1.00e+00 1.00e+00h  1
 142 -2.4560867e-01 3.12e-01 8.12e+00  -6.0 1.92e+02  -8.4 5.91e-01 5.39e-01h  1
 143 -2.4636242e-01 7.38e-01 5.43e+01  -6.0 2.86e+02  -8.9 1.00e+00 1.00e+00h  1
 144 -2.4652376e-01 5.16e-01 9.87e+02  -6.0 3.24e+02  -8.4 2.40e-01 3.11e-01h  1
 145 -2.4701737e-01 1.11e+00 1.53e+04  -6.0 2.86e+02  -8.9 6.07e-01 1.00e+00h  1
 146 -2.4716729e-01 1.12e+00 1.33e+04  -6.0 7.51e+02  -9.4 1.49e-01 1.31e-01h  1
 147 -2.4868492e-01 2.47e+01 3.23e+03  -6.0 1.58e+03  -9.9 3.92e-01 7.55e-01f  1
 148 -2.4850032e-01 6.25e+00 8.04e+02  -6.0 1.95e+02  -8.5 3.35e-01 7.48e-01h  1
 149 -2.4868719e-01 1.00e+00 1.68e+01  -6.0 2.44e+02  -9.0 6.38e-01 1.00e+00h  1
iter    objective    inf_pr   inf_du lg(mu)  ||d||  lg(rg) alpha_du alpha_pr  ls
 150 -2.4885809e-01 1.19e+00 1.05e+01  -6.0 7.58e+02  -9.5 3.54e-01 4.25e-01h  1
 151 -2.4889766e-01 1.16e+00 8.81e+00  -6.0 1.57e+03 -10.0 1.73e-01 1.31e-01h  1
 152 -2.4891635e-01 1.02e+00 1.30e+01  -6.0 4.21e+02  -9.5 4.97e-01 1.96e-01h  1
 153 -2.4898587e-01 1.28e+00 1.03e+01  -6.0 3.82e+03 -10.0 2.17e-01 2.08e-01h  1
 154 -2.4911611e-01 3.03e+00 6.94e+00  -6.0 1.26e+03  -9.6 4.44e-01 8.39e-01h  1
 155 -2.4918471e-01 2.44e+00 5.66e+00  -6.0 7.39e+02  -9.2 5.94e-01 4.17e-01h  1
 156 -2.4926274e-01 1.38e+00 5.31e+00  -6.0 2.90e+02  -8.7 7.64e-01 1.00e+00h  1
 157 -2.4930883e-01 1.19e+00 1.03e+01  -6.0 1.59e+02  -8.3 8.84e-01 1.59e-01h  1
 158 -2.4946462e-01 2.64e+00 1.63e+01  -6.0 4.68e+02  -8.8 2.90e-01 7.02e-01h  1
 159 -2.4985104e-01 4.40e+00 5.02e+00  -6.0 2.59e+02  -8.4 3.67e-01 6.66e-01h  1
iter    objective    inf_pr   inf_du lg(mu)  ||d||  lg(rg) alpha_du alpha_pr  ls
 160 -2.5001896e-01 4.51e+00 1.29e+01  -6.0 9.89e+02  -8.8 2.59e-01 8.88e-02h  1
 161 -2.4998426e-01 4.19e+00 1.19e+01  -6.0 2.37e+02  -9.3 6.15e-01 7.41e-02h  1
 162 -2.5031671e-01 5.55e+00 1.48e+01  -6.0 1.22e+03  -8.9 6.03e-01 4.15e-01h  1
 163 -2.5033800e-01 1.23e+00 5.56e+01  -6.0 3.29e+02  -9.4 6.45e-01 1.00e+00h  1
 164 -2.5036505e-01 1.08e+00 2.56e+01  -6.0 3.23e+01  -7.1 1.50e-01 1.19e-01h  1
 165 -2.5038773e-01 1.53e-02 3.03e+02  -6.0 1.91e+01  -7.6 2.69e-01 1.00e+00h  1
 166 -2.5039682e-01 1.43e-02 4.21e+02  -6.0 6.97e+01  -8.1 4.40e-01 1.39e-01h  1
 167 -2.5049325e-01 1.13e-01 2.53e+01  -6.0 1.69e+02  -8.6 1.00e+00 1.00e+00f  1
 168 -2.5055220e-01 1.16e-01 3.10e+02  -6.0 2.68e+02  -9.0 2.49e-01 2.77e-01h  1
 169 -2.5059359e-01 2.16e-01 6.84e+03  -6.0 5.45e+02  -9.5 5.82e-01 1.60e-01h  1
iter    objective    inf_pr   inf_du lg(mu)  ||d||  lg(rg) alpha_du alpha_pr  ls
 170 -2.5078485e-01 6.45e-01 5.28e+06  -6.0 1.83e+02  -9.1 2.95e-03 1.00e+00h  1
 171 -2.5076412e-01 5.56e-01 4.55e+06  -6.0 6.78e+00  -6.0 2.34e-01 1.38e-01h  1
 172 -2.5074299e-01 4.87e-01 3.99e+06  -6.0 7.64e+00  -4.6 7.99e-02 1.23e-01h  1
 173 -2.5073283e-01 4.64e-01 3.80e+06  -6.0 3.56e+00  -4.2 1.53e-01 4.91e-02h  1
 174 -2.5066113e-01 4.10e-01 3.36e+06  -6.0 1.83e+00  -4.7 7.37e-02 1.16e-01h  4
 175 -2.5066089e-01 4.10e-01 3.36e+06  -6.0 1.18e+00  -4.3 1.23e-01 4.24e-04h 11
 176 -2.5066081e-01 4.10e-01 3.36e+06  -6.0 2.57e+00  -4.7 7.02e-01 1.98e-04h 12
 177 -2.5066078e-01 4.10e-01 3.36e+06  -6.0 1.19e+00  -4.3 1.37e-01 4.47e-05h 15
 178 -2.5066076e-01 4.10e-01 3.36e+06  -6.0 2.91e+00  -4.8 1.00e+00 4.70e-05h 15
 179 -2.5011698e-01 6.87e-03 5.61e+04  -6.0 1.45e+00  -4.4 1.36e-01 9.83e-01h  1
iter    objective    inf_pr   inf_du lg(mu)  ||d||  lg(rg) alpha_du alpha_pr  ls
 180 -2.5029674e-01 3.20e-03 2.61e+04  -6.0 2.98e+00  -4.8 1.00e+00 5.35e-01f  1
 181 -2.5056981e-01 2.35e-03 1.75e+04  -6.0 8.89e+00  -5.3 1.00e+00 3.29e-01f  1
 182 -2.5055071e-01 5.69e-03 9.62e+03  -6.0 1.64e+00  -5.8 6.10e-01 4.51e-01h  1
 183 -2.5057432e-01 5.87e-03 7.84e+03  -6.0 5.39e+00  -6.3 1.00e+00 1.84e-01f  1
 184 -2.5058777e-01 1.49e-02 5.07e+03  -6.0 6.37e+00  -6.7 1.00e+00 3.54e-01h  1
 185 -2.5063444e-01 9.50e-02 1.04e+00  -6.0 8.77e+00  -7.2 1.00e+00 1.00e+00f  1
 186 -2.5062684e-01 3.00e-02 3.10e-01  -6.0 1.33e+01  -7.7 1.00e+00 1.00e+00h  1
 187 -2.5061928e-01 7.00e-02 1.16e-01  -6.0 2.39e+01  -8.2 1.00e+00 1.00e+00h  1
 188 -2.5065547e-01 6.84e-02 1.22e-01  -6.0 5.84e+01  -8.7 1.00e+00 1.00e+00h  1
 189 -2.5069448e-01 4.62e-01 1.26e-01  -6.0 1.57e+02  -9.1 1.00e+00 1.00e+00h  1
iter    objective    inf_pr   inf_du lg(mu)  ||d||  lg(rg) alpha_du alpha_pr  ls
 190 -2.5076504e-01 1.42e+00 3.10e-01  -6.0 2.87e+02  -9.6 1.00e+00 1.00e+00h  1
 191 -2.5085716e-01 3.16e+00 3.78e-01  -6.0 6.55e+02 -10.1 1.00e+00 1.00e+00h  1
 192 -2.5098000e-01 1.25e+01 7.70e-01  -6.0 1.05e+03 -10.6 1.00e+00 1.00e+00h  1
 193 -2.5099216e-01 1.68e+00 1.67e-01  -6.0 3.49e+02 -10.1 1.00e+00 1.00e+00h  1
 194 -2.5100786e-01 7.57e-01 2.67e-01  -6.0 1.36e+02  -9.7 1.00e+00 8.83e-01h  1
 195 -2.5108941e-01 3.28e+00 9.33e-01  -6.0 6.75e+02 -10.2 8.73e-01 1.00e+00h  1
 196 -2.5116443e-01 7.41e-01 1.48e+00  -6.0 4.26e+02  -9.8 5.61e-01 9.37e-01h  1
 197 -2.5116770e-01 6.35e-01 7.20e+00  -6.0 1.01e+03  -8.4 7.36e-05 1.42e-01H  1
 198 -2.5118007e-01 2.21e+01 1.46e+01  -6.0 3.42e+03  -8.9 4.81e-05 2.74e-01H  1
 199 -2.5122914e-01 1.62e+01 4.49e-01  -6.0 1.21e+03  -9.4 1.00e+00 1.00e+00h  1
iter    objective    inf_pr   inf_du lg(mu)  ||d||  lg(rg) alpha_du alpha_pr  ls
 200 -2.5157365e-01 1.07e+01 1.74e+01  -6.0 3.83e+03  -9.9 1.20e-01 3.38e-01h  1
 201 -2.5245555e-01 2.14e+01 4.08e+01  -6.0 2.03e+03  -9.4 1.14e-01 4.45e-01h  1
 202 -2.5204377e-01 2.07e+01 3.98e+01  -6.0 2.50e+03  -9.9 1.50e-01 1.21e-01h  1
 203 -2.5206440e-01 2.05e+01 3.93e+01  -6.0 1.78e+03 -10.4 1.84e-03 1.15e-02h  1
 204 -2.5154104e-01 1.62e+01 3.11e+01  -6.0 3.06e+02  -9.1 1.15e-01 2.09e-01h  3
 205 -2.5252405e-01 1.01e+01 1.95e+01  -6.0 3.53e+02  -8.6 1.68e-01 4.03e-01h  1
 206 -2.5397544e-01 1.14e+01 2.53e+01  -6.0 7.31e+02  -9.1 1.00e+00 1.00e+00h  1
 207 -2.5550149e-01 2.04e+01 4.69e+01  -6.0 6.39e+03  -9.6 2.30e-02 1.07e-01h  1
 208 -2.5491004e-01 1.51e+01 3.39e+01  -6.0 2.20e+03 -10.1 2.43e-01 2.95e-01h  1
 209 -2.5640652e-01 2.29e+01 3.21e+02  -6.0 6.72e+03 -10.5 7.94e-03 9.56e-02h  1
iter    objective    inf_pr   inf_du lg(mu)  ||d||  lg(rg) alpha_du alpha_pr  ls
 210 -2.5708158e-01 2.39e+01 2.41e+02  -6.0 3.29e+03    -  3.56e-02 1.21e-01h  1
 211 -2.5727080e-01 2.27e+01 3.82e+02  -6.0 3.25e+03    -  5.04e-01 5.43e-02h  1
 212 -2.5832955e-01 1.49e+01 5.01e+02  -6.0 2.44e+03    -  1.62e-01 3.43e-01h  1
 213 -2.5961822e-01 4.87e+00 8.88e+01  -6.0 1.95e+03  -9.2 6.11e-02 6.76e-01h  1
 214 -2.5986777e-01 4.75e+00 8.96e+01  -6.0 2.33e+03  -8.8 8.34e-02 2.35e-02h  1
 215 -2.5877927e-01 5.94e-01 1.41e+02  -6.0 7.87e+02  -9.3 2.92e-02 1.00e+00h  1
 216 -2.5934691e-01 2.00e-01 1.15e+02  -6.0 4.84e+02  -9.7 9.59e-01 6.17e-01h  1
 217 -2.5995360e-01 1.78e+00 3.80e+01  -6.0 4.45e+02 -10.2 1.00e+00 1.00e+00h  1
 218 -2.5999957e-01 2.94e+00 2.77e+01  -6.0 1.49e+03 -10.7 1.00e+00 2.95e-01h  1
 219 -2.6004015e-01 2.13e+00 1.88e+01  -6.0 4.90e+02    -  2.24e-01 3.46e-01h  1
iter    objective    inf_pr   inf_du lg(mu)  ||d||  lg(rg) alpha_du alpha_pr  ls
 220 -2.6011053e-01 3.34e+00 7.19e+00  -6.0 7.02e+02 -10.3 6.77e-01 6.80e-01h  1
 221 -2.6016222e-01 5.23e-01 6.18e+00  -6.0 2.98e+02    -  3.89e-01 1.00e+00h  1
 222 -2.6016835e-01 5.27e-01 2.07e-02  -6.0 2.14e+02    -  1.00e+00 9.92e-01h  1
 223 -2.6016851e-01 3.66e-02 2.17e-03  -6.0 5.59e+01    -  1.00e+00 1.00e+00h  1
 224 -2.6016848e-01 8.73e-04 3.76e-05  -6.0 8.73e+00    -  1.00e+00 1.00e+00h  1
 225 -2.6016848e-01 4.19e-10 2.58e-11  -6.0 4.71e-03    -  1.00e+00 1.00e+00h  1
 226 -2.6062829e-01 1.37e+00 1.09e+02  -7.5 2.30e+03    -  5.10e-01 2.03e-01f  1
 227 -2.6078390e-01 1.59e+00 1.25e+02  -7.5 1.34e+03 -10.8 3.96e-01 1.01e-01h  1
 228 -2.6127052e-01 4.85e+00 9.15e+01  -7.5 2.76e+03    -  2.44e-01 3.69e-01h  1
 229 -2.6127973e-01 4.79e+00 3.36e+02  -7.5 8.81e+02  -9.4 6.02e-01 1.31e-02h  1
iter    objective    inf_pr   inf_du lg(mu)  ||d||  lg(rg) alpha_du alpha_pr  ls
 230 -2.6158442e-01 4.43e+00 1.96e+02  -7.5 2.61e+03    -  4.33e-01 4.23e-01h  1
 231 -2.6164513e-01 3.44e+00 1.82e+02  -7.5 2.62e+02  -9.9 5.25e-01 2.25e-01h  1
 232 -2.6175855e-01 1.84e+00 1.15e+02  -7.5 5.58e+02 -10.4 1.00e+00 4.90e-01h  1
 233 -2.6183783e-01 6.72e+00 7.10e+01  -7.5 1.93e+03    -  6.14e-02 3.96e-01h  1
 234 -2.6184199e-01 6.53e+00 6.76e+01  -7.5 2.65e+02  -9.9 4.90e-01 2.80e-02h  1
 235 -2.6186751e-01 3.67e+00 3.72e+01  -7.5 6.52e+01  -9.5 1.00e+00 4.38e-01h  1
 236 -2.6189980e-01 1.08e-01 1.05e-01  -7.5 1.36e+02 -10.0 9.15e-01 1.00e+00h  1
 237 -2.6192995e-01 3.50e+00 4.43e-01  -7.5 8.81e+02    -  4.71e-01 8.56e-01h  1
 238 -2.6191723e-01 4.54e+00 1.99e+00  -7.5 5.00e+02    -  7.50e-02 1.00e+00h  1
 239 -2.6192303e-01 5.44e-01 1.14e+00  -7.5 1.75e+02    -  2.96e-01 1.00e+00h  1
iter    objective    inf_pr   inf_du lg(mu)  ||d||  lg(rg) alpha_du alpha_pr  ls
 240 -2.6192487e-01 3.08e+00 2.57e-01  -7.5 3.78e+02    -  3.36e-01 1.00e+00h  1
 241 -2.6192348e-01 5.89e-03 7.97e-04  -7.5 1.87e+01 -10.5 1.00e+00 1.00e+00h  1
 242 -2.6192352e-01 3.88e-02 5.18e-05  -7.5 5.65e+01 -11.0 1.00e+00 1.00e+00h  1
 243 -2.6192356e-01 3.74e-01 6.21e-04  -7.5 1.75e+02 -11.4 1.00e+00 1.00e+00h  1
 244 -2.6192375e-01 4.54e+00 7.73e-03  -7.5 6.08e+02 -11.9 1.00e+00 1.00e+00h  1
 245 -2.6192389e-01 5.56e+00 1.07e+00  -7.5 3.49e+03 -12.4 7.16e-01 9.81e-02h  4
 246 -2.6192402e-01 6.83e+00 2.99e+00  -7.5 1.73e+04 -12.9 2.95e-01 1.91e-02h  4
 247 -2.6192425e-01 8.15e+00 1.49e+00  -7.5 1.94e+03    -  1.00e+00 2.50e-01h  3
 248 -2.6192737e-01 1.04e+01 5.88e+00  -7.5 3.38e+03    -  1.52e-02 1.00e+00H  1
 249 -2.6192709e-01 4.77e-02 2.10e-02  -7.5 4.59e+01  -9.7 1.00e+00 1.00e+00h  1
iter    objective    inf_pr   inf_du lg(mu)  ||d||  lg(rg) alpha_du alpha_pr  ls
 250 -2.6192906e-01 1.05e+01 4.78e-01  -7.5 1.64e+03    -  6.20e-01 1.00e+00H  1
 251 -2.6192990e-01 1.01e+01 5.26e-02  -7.5 7.81e+02    -  1.00e+00 1.00e+00h  1
 252 -2.6192990e-01 4.60e-03 1.14e-04  -7.5 1.25e+01    -  1.00e+00 1.00e+00h  1
 253 -2.6192991e-01 1.07e-03 2.53e-05  -7.5 7.97e+00    -  1.00e+00 1.00e+00h  1
 254 -2.6192991e-01 7.79e-10 9.93e-11  -7.5 7.88e-03    -  1.00e+00 1.00e+00h  1
 255 -2.6193232e-01 2.66e+00 8.00e+00  -9.0 1.63e+03    -  5.20e-01 2.44e-01h  1
 256 -2.6193560e-01 5.63e+01 8.76e-01  -9.0 3.09e+03    -  4.08e-01 5.84e-01h  1
 257 -2.6193637e-01 3.87e+01 1.02e+01  -9.0 1.48e+03    -  6.50e-03 5.45e-01h  1
 258 -2.6193740e-01 3.72e+01 6.92e+00  -9.0 1.43e+03    -  1.01e-01 8.86e-01h  1
 259 -2.6193822e-01 2.85e+01 4.03e+00  -9.0 1.13e+03    -  4.52e-01 1.00e+00h  1
iter    objective    inf_pr   inf_du lg(mu)  ||d||  lg(rg) alpha_du alpha_pr  ls
 260 -2.6193874e-01 3.84e+01 3.51e+00  -9.0 9.43e+03    -  1.28e-01 7.79e-02h  1
 261 -2.6193921e-01 2.78e+01 3.38e+00  -9.0 1.66e+03    -  2.29e-01 3.42e-01h  1
 262 -2.6193921e-01 2.78e+01 3.71e+00  -9.0 1.17e+05    -  6.30e-03 1.95e-04h  8
 263 -2.6193967e-01 2.66e-02 4.12e+01  -9.0 6.11e+01 -10.2 1.38e-01 1.00e+00h  1
 264 -2.6193961e-01 9.64e-03 3.57e-03  -9.0 2.00e+01 -10.7 1.00e+00 1.00e+00h  1
 265 -2.6193963e-01 4.41e-03 1.80e-03  -9.0 1.95e+01 -11.2 1.00e+00 6.82e-01H  1
 266 -2.6193964e-01 8.79e-04 2.33e-06  -9.0 5.36e+01 -11.6 1.00e+00 1.00e+00H  1
 267 -2.6193968e-01 1.39e+00 5.40e-04  -9.0 1.88e+02 -12.1 7.70e-01 1.00e+00h  1
 268 -2.6193982e-01 4.20e+00 1.68e-03  -9.0 5.63e+02 -12.6 7.83e-01 1.00e+00h  1
 269 -2.6193989e-01 1.69e+00 3.51e-03  -9.0 2.17e+02 -12.2 2.60e-01 1.00e+00h  1
iter    objective    inf_pr   inf_du lg(mu)  ||d||  lg(rg) alpha_du alpha_pr  ls
 270 -2.6194037e-01 9.87e+01 2.64e-02  -9.0 6.81e+03 -12.6 1.89e-01 4.22e-01h  1
Error in an AMPL evaluation. Run with "halt_on_ampl_error yes" to see details.
Warning: SOC step rejected due to evaluation error
 271 -2.6194027e-01 8.03e+01 2.64e+00  -9.0 3.29e+03 -13.1 5.67e-02 4.06e-01h  2
 272 -2.6194108e-01 9.29e+01 1.19e+00  -9.0 3.72e+03 -12.7 4.16e-01 5.65e-01h  1
 273 -2.6194130e-01 7.68e+01 2.75e-01  -9.0 6.22e+03 -13.2 8.08e-02 1.83e-01h  2
 274 -2.6194195e-01 7.26e+01 1.91e-01  -9.0 4.01e+03 -12.7 4.46e-01 2.71e-01h  1
 275 -2.6194205e-01 7.07e+01 1.82e-01  -9.0 8.29e+03 -13.2 6.97e-02 2.62e-02h  4
 276 -2.6194206e-01 7.07e+01 1.79e-01  -9.0 2.58e+04 -13.7 3.89e-02 9.46e-04h  7
 277 -2.6194207e-01 7.05e+01 1.79e-01  -9.0 1.31e+04    -  6.88e-03 1.91e-03h  7
 278 -2.6194319e-01 6.15e+01 1.25e-01  -9.0 4.34e+03    -  5.71e-01 4.14e-01h  1
 279 -2.6194434e-01 4.58e+01 4.24e+00  -9.0 2.05e+03    -  6.95e-03 6.41e-01h  1
iter    objective    inf_pr   inf_du lg(mu)  ||d||  lg(rg) alpha_du alpha_pr  ls
 280 -2.6194364e-01 1.01e+01 4.12e+01  -9.0 3.15e+03 -12.4 1.12e-02 1.00e+00H  1
 281 -2.6194426e-01 5.62e+01 4.02e+01  -9.0 7.14e+04    -  2.35e-02 2.39e-02h  1
 282 -2.6194463e-01 1.53e+01 1.58e+00  -9.0 8.66e+02    -  4.08e-01 1.00e+00h  1
 283 -2.6194596e-01 7.25e+01 1.09e+00  -9.0 1.28e+04 -12.8 2.47e-02 1.75e-01h  1
 284 -2.6194558e-01 7.29e+01 9.76e-01  -9.0 9.81e+03    -  8.10e-03 5.34e-02h  2
 285 -2.6194577e-01 7.33e+01 9.66e-01  -9.0 2.84e+04 -13.3 8.26e-03 9.16e-03h  2
 286 -2.6194580e-01 7.33e+01 9.66e-01  -9.0 2.05e+05    -  6.33e-03 1.70e-04h  4
 287 -2.6194610e-01 6.98e+01 8.84e-01  -9.0 4.72e+03    -  7.36e-02 7.93e-02h  1
 288 -2.6194799e-01 5.69e+01 3.85e+00  -9.0 1.82e+03 -12.0 7.71e-02 1.00e+00h  1
 289 -2.6194809e-01 5.58e+01 3.83e+00  -9.0 7.98e+03    -  1.69e-01 1.99e-02h  1
iter    objective    inf_pr   inf_du lg(mu)  ||d||  lg(rg) alpha_du alpha_pr  ls
 290 -2.6194842e-01 5.01e+01 4.99e+00  -9.0 5.36e+03    -  6.19e-01 1.12e-01h  2
 291 -2.6194949e-01 4.05e+01 2.51e+00  -9.0 2.14e+03    -  7.58e-01 5.53e-01h  1
 292 -2.6195084e-01 5.07e+01 1.20e+01  -9.0 1.62e+03    -  2.01e-02 1.00e+00h  1
 293 -2.6195097e-01 4.47e+01 1.05e+01  -9.0 1.59e+03    -  8.67e-02 1.40e-01h  1
 294 -2.6195112e-01 3.72e+01 6.80e+00  -9.0 1.57e+03    -  5.08e-01 2.33e-01h  1
 295 -2.6195165e-01 3.71e+01 4.61e+01  -9.0 1.49e+03    -  2.80e-02 7.67e-01h  1
 296 -2.6195204e-01 2.89e+01 1.55e+01  -9.0 1.12e+03    -  2.69e-02 9.68e-01h  1
 297 -2.6195193e-01 2.72e+01 1.30e+01  -9.0 2.18e+03    -  1.85e-01 1.66e-01h  2
 298 -2.6195205e-01 1.66e+01 6.49e+00  -9.0 6.96e+02 -12.5 4.47e-01 5.01e-01h  1
 299 -2.6195203e-01 6.26e-02 8.40e-02  -9.0 6.76e+01    -  8.78e-01 1.00e+00h  1
iter    objective    inf_pr   inf_du lg(mu)  ||d||  lg(rg) alpha_du alpha_pr  ls
 300 -2.6195205e-01 6.47e-02 2.70e-03  -9.0 5.28e+01    -  1.00e+00 9.67e-01h  1
 301 -2.6195205e-01 4.95e-04 6.49e-08  -9.0 4.60e+00    -  1.00e+00 1.00e+00h  1
 302 -2.6195205e-01 3.78e-09 4.25e-13  -9.0 1.20e-02    -  1.00e+00 1.00e+00h  1

Number of Iterations....: 302

                                   (scaled)                 (unscaled)
Objective...............:  -2.6195204894563096e-01   -2.6195204894563096e-01
Dual infeasibility......:   4.2478076637960972e-13    4.2478076637960972e-13
Constraint violation....:   2.0620287145184282e-09    3.7834979593753815e-09
Complementarity.........:   9.0909092239775917e-10    9.0909092239775917e-10
Overall NLP error.......:   2.0620287145184282e-09    3.7834979593753815e-09


Number of objective function evaluations             = 516
Number of objective gradient evaluations             = 303
Number of equality constraint evaluations            = 519
Number of inequality constraint evaluations          = 517
Number of equality constraint Jacobian evaluations   = 303
Number of inequality constraint Jacobian evaluations = 303
Number of Lagrangian Hessian evaluations             = 302
Total CPU secs in IPOPT (w/o function evaluations)   =    691.807
Total CPU secs in NLP function evaluations           =     10.788

EXIT: Optimal Solution Found.
